TYPE : Vertex Cover
DIMENSION: 20
EDGE_DATA_SECTION:
0 3
0 9
0 12
0 19
1 2
1 5
1 9
1 10
1 15
2 4
2 12
2 13
2 14
2 15
3 4
3 6
3 7
3 10
3 12
3 14
4 5
4 7
4 13
4 14
4 19
5 6
5 8
5 15
6 9
6 13
6 17
7 13
7 17
7 19
8 17
9 14
9 15
9 19
10 15
11 13
11 14
11 18
11 19
12 14
12 15
13 14
13 17
14 15
14 16
14 18
14 19
16 19
17 19
-1
VERTEX_DEGREE:
4.0 5.0 6.0 7.0 7.0 5.0 5.0 5.0 2.0 6.0 3.0 4.0 5.0 7.0 11.0 7.0 2.0 5.0 2.0 8.0
VERTEX_COVER:
1 3 4 5 9 11 12 13 14 15 17 19
EOF
